StringID   Type       x          y          demand     ReadyTime  DueDate    ServiceTime  wp1 wp2 wp3 wp4 wp5 wp6 wp7 wp8 wp9 wp10 wp11 wp12 wp13 wp14 wp15 wp16 wp17
D0         d          35.0       35.0       0.0        0.0        1000.0     0.0          6   7   8   9   10  11  12  13  14  15   16   17   18   19   20   21   22 
S0         f          35.0       35.0       0.0        0.0        1000.0     0.0          0.2 0.4 0.6 1   1   1   1   1   1   1    1    0.6  0.4  0.2  0    0    0 
S1         f          61.0       37.0       0.0        0.0        1000.0     0.0          0   0.1 0.2 0.3 0.3 0.2 0.2 0.2 0.2 0.3  0.3  0.2  0.1  0.0  0    0    0 
S2         f          74.0       39.0       0.0        0.0        1000.0     0.0          0.2 0.4 0.6 1   1   1   1   1   1   1    1    0.6  0.4  0.2  0    0    0 
S3         f          47.0       57.0       0.0        0.0        1000.0     0.0          0.2 0.4 0.6 1   1   1   1   1   1   1    1    0.6  0.4  0.2  0    0    0 
S4         f          57.0       65.0       0.0        0.0        1000.0     0.0          0.2 0.4 0.6 1   1   1   1   1   1   1    1    0.6  0.4  0.2  0    0    0 
S5         f          29.0       59.0       0.0        0.0        1000.0     0.0          0.2 0.4 0.6 1   1   1   1   1   1   1    1    0.6  0.4  0.2  0    0    0 
S6         f          34.0       71.0       0.0        0.0        1000.0     0.0          0.2 0.4 0.6 1   1   1   1   1   1   1    1    0.6  0.4  0.2  0    0    0 
S7         f          22.0       58.0       0.0        0.0        1000.0     0.0          0   0.1 0.2 0.3 0.3 0.2 0.2 0.2 0.2 0.3  0.3  0.2  0.1  0.0  0    0    0
S8         f          7.0        61.0       0.0        0.0        1000.0     0.0          0   0.1 0.2 0.3 0.3 0.2 0.2 0.2 0.2 0.3  0.3  0.2  0.1  0.0  0    0    0
S9         f          18.0       41.0       0.0        0.0        1000.0     0.0          0.2 0.4 0.6 1   1   1   1   1   1   1    1    0.6  0.4  0.2  0    0    0
S10        f          5.0        39.0       0.0        0.0        1000.0     0.0          0   0.1 0.2 0.3 0.3 0.2 0.2 0.2 0.2 0.3  0.3  0.2  0.1  0.0  0    0    0
S11        f          14.0       20.0       0.0        0.0        1000.0     0.0          0   0.1 0.2 0.3 0.3 0.2 0.2 0.2 0.2 0.3  0.3  0.2  0.1  0.0  0    0    0
S12        f          0.0        26.0       0.0        0.0        1000.0     0.0          0.2 0.4 0.6 1   1   1   1   1   1   1    1    0.6  0.4  0.2  0    0    0
S13        f          24.0       25.0       0.0        0.0        1000.0     0.0          0.2 0.4 0.6 1   1   1   1   1   1   1    1    0.6  0.4  0.2  0    0    0
S14        f          26.0       6.0        0.0        0.0        1000.0     0.0          0.2 0.4 0.6 1   1   1   1   1   1   1    1    0.6  0.4  0.2  0    0    0
S15        f          34.0       20.0       0.0        0.0        1000.0     0.0          0   0.1 0.2 0.3 0.3 0.2 0.2 0.2 0.2 0.3  0.3  0.2  0.1  0.0  0    0    0
S16        f          41.0       5.0        0.0        0.0        1000.0     0.0          0   0.1 0.2 0.3 0.3 0.2 0.2 0.2 0.2 0.3  0.3  0.2  0.1  0.0  0    0    0
S17        f          50.0       9.0        0.0        0.0        1000.0     0.0          0.2 0.4 0.6 1   1   1   1   1   1   1    1    0.6  0.4  0.2  0    0    0
S18        f          61.0       14.0       0.0        0.0        1000.0     0.0          0.2 0.4 0.6 1   1   1   1   1   1   1    1    0.6  0.4  0.2  0    0    0
S19        f          62.0       21.0       0.0        0.0        1000.0     0.0          0.2 0.4 0.6 1   1   1   1   1   1   1    1    0.6  0.4  0.2  0    0    0
S20        f          74.0       30.0       0.0        0.0        1000.0     0.0          0   0.1 0.2 0.3 0.3 0.2 0.2 0.2 0.2 0.3  0.3  0.2  0.1  0.0  0    0    0                 
C76        c          49.0       42.0       13.0       166.0      406.0      10.0       
C77        c          53.0       43.0       14.0       35.0       275.0      10.0       
C78        c          61.0       52.0       3.0        199.0      439.0      10.0       
C79        c          57.0       48.0       23.0       26.0       266.0      10.0       
C80        c          56.0       37.0       6.0        22.0       262.0      10.0       
C81        c          55.0       54.0       26.0       0.0        962.0      10.0       
C82        c          15.0       47.0       16.0       630.0      870.0      10.0       
C83        c          14.0       37.0       11.0       491.0      731.0      10.0       
C84        c          11.0       31.0       7.0        261.0      501.0      10.0       
C85        c          16.0       22.0       41.0       528.0      768.0      10.0       
C86        c          4.0        18.0       35.0       714.0      954.0      10.0       
C87        c          28.0       18.0       26.0       429.0      669.0      10.0       
C88        c          26.0       52.0       9.0        271.0      511.0      10.0       
C89        c          26.0       35.0       15.0       506.0      746.0      10.0       
C90        c          31.0       67.0       3.0        464.0      704.0      10.0       
C91        c          15.0       19.0       1.0        420.0      660.0      10.0       
C92        c          22.0       22.0       2.0        191.0      431.0      10.0       
C93        c          18.0       24.0       22.0       0.0        969.0      10.0       
C94        c          26.0       27.0       27.0       0.0        977.0      10.0       
C95        c          25.0       24.0       20.0       15.0       255.0      10.0       
C96        c          22.0       27.0       11.0       734.0      974.0      10.0       
C97        c          25.0       21.0       12.0       0.0        972.0      10.0       
C98        c          19.0       21.0       10.0       0.0        968.0      10.0       
C99        c          20.0       26.0       9.0        27.0       267.0      10.0       
C100       c          18.0       18.0       17.0       0.0        965.0      10.0       

F Vehicle fuel tank capacity /9.4/
Q Vehicle load capacity /1000.0/
r fuel consumption rate /0.155/
g inverse refueling rate /0.5/
v average Velocity /1.0/
